4 
5  06 21 36 53 
6  08 23 38 53 
7  09 24 39 54 
8  09 24 39 54 
9  09 24 39 54 
10  09 24 39 54 
11  09 24 39 54 
12  09 24 39 54 
13  09 24 39 54 
14  14 29 44 59 
15  14 29 44 59 
16  14 29 44 59 
17  14 32 49 
18  04 20 36 50 
19  05 20 35 50 
20  05 20 35 
21  
22 
